c Standarized MaxSat Instance
c{
c "sha1sum": "9469154bd51fa88cb1d07b2add126a7d544be322",
c "nvars": 40,
c "ncls": 1014,
c "nhards": 0,
c "nhard_len_stats":
c    { "min": 0, "max": 0, "ave": 0.00,
c      "stddev": 0.00 },
c "nsofts": 1014,
c "nsoft_len_stats":
c    { "min": 2, "max": 2, "ave": 2.00,
c      "stddev": 0.00 },
c "nsoft_wts": 10,
c "soft_wt_stats":
c    { "min": 1, "max": 10, "ave": 5.57,
c      "stddev": 2.83 }
c}
c------------------------------------------------------------
c FILE:  brock800_3.b
c
c Graph Generator
c
c By: Mark Brockington (brock@cs.ualberta.ca)
c and Joe Culberson (joe@cs.ualberta.ca)
c
c Graph Size:800, Clique Size: 25
c Seed:2, Edge Density:  0.65000
c Depth 2 Hiding
c
c Clique Elements are:
c 383 735 28 585 95 419 240 344 651 270 
c 296 424 236 480 100 23 293 38 285 769 
c 397 156 636 109 736 
c
c Estimated Size of Uncompressed File:   2.0MB
c
p wcnf 40 1014 5653
9 1 2 0
9 -1 -2 0
4 1 3 0
4 -1 -3 0
8 1 4 0
8 -1 -4 0
8 1 5 0
8 -1 -5 0
10 1 6 0
10 -1 -6 0
2 1 7 0
2 -1 -7 0
4 1 9 0
4 -1 -9 0
8 1 11 0
8 -1 -11 0
3 1 12 0
3 -1 -12 0
6 1 13 0
6 -1 -13 0
5 1 14 0
5 -1 -14 0
7 1 15 0
7 -1 -15 0
4 1 16 0
4 -1 -16 0
6 1 18 0
6 -1 -18 0
10 1 20 0
10 -1 -20 0
10 1 21 0
10 -1 -21 0
7 1 22 0
7 -1 -22 0
8 1 24 0
8 -1 -24 0
2 1 25 0
2 -1 -25 0
7 1 27 0
7 -1 -27 0
1 1 29 0
1 -1 -29 0
3 1 31 0
3 -1 -31 0
2 1 32 0
2 -1 -32 0
9 1 34 0
9 -1 -34 0
2 1 36 0
2 -1 -36 0
5 1 37 0
5 -1 -37 0
2 1 39 0
2 -1 -39 0
2 2 3 0
2 -2 -3 0
10 2 4 0
10 -2 -4 0
3 2 5 0
3 -2 -5 0
6 2 6 0
6 -2 -6 0
9 2 9 0
9 -2 -9 0
7 2 12 0
7 -2 -12 0
3 2 15 0
3 -2 -15 0
7 2 17 0
7 -2 -17 0
6 2 18 0
6 -2 -18 0
5 2 19 0
5 -2 -19 0
10 2 20 0
10 -2 -20 0
3 2 22 0
3 -2 -22 0
8 2 23 0
8 -2 -23 0
6 2 24 0
6 -2 -24 0
8 2 25 0
8 -2 -25 0
5 2 26 0
5 -2 -26 0
9 2 27 0
9 -2 -27 0
3 2 28 0
3 -2 -28 0
4 2 29 0
4 -2 -29 0
9 2 30 0
9 -2 -30 0
10 2 31 0
10 -2 -31 0
1 2 32 0
1 -2 -32 0
10 2 33 0
10 -2 -33 0
6 2 34 0
6 -2 -34 0
1 2 35 0
1 -2 -35 0
2 2 37 0
2 -2 -37 0
7 2 38 0
7 -2 -38 0
9 2 39 0
9 -2 -39 0
4 3 5 0
4 -3 -5 0
1 3 6 0
1 -3 -6 0
1 3 7 0
1 -3 -7 0
5 3 8 0
5 -3 -8 0
1 3 9 0
1 -3 -9 0
3 3 10 0
3 -3 -10 0
10 3 11 0
10 -3 -11 0
10 3 16 0
10 -3 -16 0
9 3 17 0
9 -3 -17 0
3 3 19 0
3 -3 -19 0
6 3 20 0
6 -3 -20 0
4 3 21 0
4 -3 -21 0
8 3 22 0
8 -3 -22 0
6 3 23 0
6 -3 -23 0
7 3 24 0
7 -3 -24 0
6 3 25 0
6 -3 -25 0
1 3 28 0
1 -3 -28 0
5 3 29 0
5 -3 -29 0
10 3 30 0
10 -3 -30 0
10 3 31 0
10 -3 -31 0
8 3 32 0
8 -3 -32 0
3 3 33 0
3 -3 -33 0
8 3 34 0
8 -3 -34 0
7 3 35 0
7 -3 -35 0
4 3 37 0
4 -3 -37 0
7 3 38 0
7 -3 -38 0
2 3 39 0
2 -3 -39 0
5 3 40 0
5 -3 -40 0
9 4 6 0
9 -4 -6 0
9 4 7 0
9 -4 -7 0
4 4 8 0
4 -4 -8 0
3 4 9 0
3 -4 -9 0
9 4 10 0
9 -4 -10 0
4 4 13 0
4 -4 -13 0
7 4 14 0
7 -4 -14 0
10 4 15 0
10 -4 -15 0
6 4 16 0
6 -4 -16 0
7 4 19 0
7 -4 -19 0
9 4 20 0
9 -4 -20 0
5 4 21 0
5 -4 -21 0
10 4 22 0
10 -4 -22 0
4 4 23 0
4 -4 -23 0
9 4 26 0
9 -4 -26 0
7 4 27 0
7 -4 -27 0
10 4 28 0
10 -4 -28 0
5 4 30 0
5 -4 -30 0
3 4 31 0
3 -4 -31 0
10 4 34 0
10 -4 -34 0
10 4 35 0
10 -4 -35 0
2 4 37 0
2 -4 -37 0
9 4 38 0
9 -4 -38 0
7 4 39 0
7 -4 -39 0
5 4 40 0
5 -4 -40 0
7 5 6 0
7 -5 -6 0
3 5 7 0
3 -5 -7 0
8 5 8 0
8 -5 -8 0
4 5 9 0
4 -5 -9 0
5 5 13 0
5 -5 -13 0
3 5 15 0
3 -5 -15 0
2 5 16 0
2 -5 -16 0
3 5 19 0
3 -5 -19 0
6 5 21 0
6 -5 -21 0
5 5 22 0
5 -5 -22 0
2 5 23 0
2 -5 -23 0
10 5 24 0
10 -5 -24 0
2 5 26 0
2 -5 -26 0
2 5 27 0
2 -5 -27 0
5 5 28 0
5 -5 -28 0
8 5 29 0
8 -5 -29 0
10 5 31 0
10 -5 -31 0
10 5 32 0
10 -5 -32 0
7 5 33 0
7 -5 -33 0
4 5 34 0
4 -5 -34 0
8 5 35 0
8 -5 -35 0
4 5 37 0
4 -5 -37 0
3 5 38 0
3 -5 -38 0
3 5 39 0
3 -5 -39 0
6 5 40 0
6 -5 -40 0
3 6 7 0
3 -6 -7 0
2 6 9 0
2 -6 -9 0
8 6 10 0
8 -6 -10 0
2 6 12 0
2 -6 -12 0
8 6 13 0
8 -6 -13 0
2 6 14 0
2 -6 -14 0
8 6 16 0
8 -6 -16 0
1 6 19 0
1 -6 -19 0
10 6 20 0
10 -6 -20 0
1 6 22 0
1 -6 -22 0
6 6 23 0
6 -6 -23 0
2 6 24 0
2 -6 -24 0
3 6 25 0
3 -6 -25 0
8 6 26 0
8 -6 -26 0
8 6 27 0
8 -6 -27 0
7 6 28 0
7 -6 -28 0
10 6 29 0
10 -6 -29 0
7 6 30 0
7 -6 -30 0
8 6 32 0
8 -6 -32 0
1 6 33 0
1 -6 -33 0
2 6 36 0
2 -6 -36 0
6 6 37 0
6 -6 -37 0
1 6 38 0
1 -6 -38 0
1 6 39 0
1 -6 -39 0
3 6 40 0
3 -6 -40 0
5 7 10 0
5 -7 -10 0
9 7 11 0
9 -7 -11 0
6 7 12 0
6 -7 -12 0
8 7 13 0
8 -7 -13 0
1 7 16 0
1 -7 -16 0
2 7 18 0
2 -7 -18 0
10 7 22 0
10 -7 -22 0
3 7 24 0
3 -7 -24 0
9 7 25 0
9 -7 -25 0
2 7 26 0
2 -7 -26 0
10 7 29 0
10 -7 -29 0
1 7 30 0
1 -7 -30 0
9 7 31 0
9 -7 -31 0
1 7 32 0
1 -7 -32 0
1 7 35 0
1 -7 -35 0
10 7 36 0
10 -7 -36 0
6 7 37 0
6 -7 -37 0
2 7 38 0
2 -7 -38 0
2 7 39 0
2 -7 -39 0
4 7 40 0
4 -7 -40 0
10 8 9 0
10 -8 -9 0
9 8 10 0
9 -8 -10 0
4 8 11 0
4 -8 -11 0
6 8 12 0
6 -8 -12 0
6 8 13 0
6 -8 -13 0
5 8 14 0
5 -8 -14 0
7 8 15 0
7 -8 -15 0
1 8 16 0
1 -8 -16 0
6 8 17 0
6 -8 -17 0
8 8 18 0
8 -8 -18 0
4 8 21 0
4 -8 -21 0
10 8 22 0
10 -8 -22 0
6 8 23 0
6 -8 -23 0
9 8 25 0
9 -8 -25 0
8 8 26 0
8 -8 -26 0
7 8 27 0
7 -8 -27 0
1 8 29 0
1 -8 -29 0
8 8 33 0
8 -8 -33 0
9 8 34 0
9 -8 -34 0
10 8 35 0
10 -8 -35 0
9 8 38 0
9 -8 -38 0
9 9 10 0
9 -9 -10 0
10 9 14 0
10 -9 -14 0
8 9 16 0
8 -9 -16 0
10 9 17 0
10 -9 -17 0
10 9 18 0
10 -9 -18 0
7 9 20 0
7 -9 -20 0
5 9 22 0
5 -9 -22 0
2 9 24 0
2 -9 -24 0
9 9 26 0
9 -9 -26 0
9 9 27 0
9 -9 -27 0
1 9 28 0
1 -9 -28 0
7 9 31 0
7 -9 -31 0
3 9 32 0
3 -9 -32 0
7 9 33 0
7 -9 -33 0
3 9 34 0
3 -9 -34 0
8 9 36 0
8 -9 -36 0
4 9 37 0
4 -9 -37 0
4 9 38 0
4 -9 -38 0
3 9 40 0
3 -9 -40 0
1 10 11 0
1 -10 -11 0
7 10 12 0
7 -10 -12 0
3 10 13 0
3 -10 -13 0
7 10 14 0
7 -10 -14 0
6 10 15 0
6 -10 -15 0
10 10 17 0
10 -10 -17 0
3 10 18 0
3 -10 -18 0
6 10 19 0
6 -10 -19 0
8 10 20 0
8 -10 -20 0
2 10 21 0
2 -10 -21 0
5 10 22 0
5 -10 -22 0
6 10 25 0
6 -10 -25 0
10 10 28 0
10 -10 -28 0
5 10 30 0
5 -10 -30 0
4 10 31 0
4 -10 -31 0
9 10 33 0
9 -10 -33 0
5 10 34 0
5 -10 -34 0
1 10 35 0
1 -10 -35 0
4 10 36 0
4 -10 -36 0
6 10 39 0
6 -10 -39 0
9 11 12 0
9 -11 -12 0
3 11 14 0
3 -11 -14 0
7 11 17 0
7 -11 -17 0
5 11 18 0
5 -11 -18 0
5 11 20 0
5 -11 -20 0
4 11 22 0
4 -11 -22 0
8 11 25 0
8 -11 -25 0
2 11 26 0
2 -11 -26 0
7 11 27 0
7 -11 -27 0
1 11 28 0
1 -11 -28 0
5 11 29 0
5 -11 -29 0
7 11 31 0
7 -11 -31 0
7 11 35 0
7 -11 -35 0
7 11 36 0
7 -11 -36 0
4 11 38 0
4 -11 -38 0
2 11 39 0
2 -11 -39 0
7 12 13 0
7 -12 -13 0
7 12 15 0
7 -12 -15 0
8 12 16 0
8 -12 -16 0
4 12 17 0
4 -12 -17 0
8 12 20 0
8 -12 -20 0
3 12 24 0
3 -12 -24 0
10 12 25 0
10 -12 -25 0
7 12 26 0
7 -12 -26 0
7 12 27 0
7 -12 -27 0
3 12 28 0
3 -12 -28 0
6 12 30 0
6 -12 -30 0
1 12 31 0
1 -12 -31 0
3 12 33 0
3 -12 -33 0
9 12 35 0
9 -12 -35 0
7 12 36 0
7 -12 -36 0
1 12 37 0
1 -12 -37 0
2 12 38 0
2 -12 -38 0
4 12 40 0
4 -12 -40 0
6 13 14 0
6 -13 -14 0
6 13 16 0
6 -13 -16 0
7 13 18 0
7 -13 -18 0
3 13 20 0
3 -13 -20 0
8 13 21 0
8 -13 -21 0
3 13 22 0
3 -13 -22 0
4 13 23 0
4 -13 -23 0
2 13 24 0
2 -13 -24 0
10 13 25 0
10 -13 -25 0
1 13 27 0
1 -13 -27 0
9 13 29 0
9 -13 -29 0
4 13 30 0
4 -13 -30 0
2 13 33 0
2 -13 -33 0
5 13 35 0
5 -13 -35 0
10 13 36 0
10 -13 -36 0
10 13 37 0
10 -13 -37 0
8 14 18 0
8 -14 -18 0
7 14 19 0
7 -14 -19 0
2 14 21 0
2 -14 -21 0
7 14 22 0
7 -14 -22 0
4 14 24 0
4 -14 -24 0
8 14 25 0
8 -14 -25 0
10 14 28 0
10 -14 -28 0
10 14 29 0
10 -14 -29 0
9 14 31 0
9 -14 -31 0
3 14 32 0
3 -14 -32 0
8 14 33 0
8 -14 -33 0
6 14 34 0
6 -14 -34 0
3 14 38 0
3 -14 -38 0
10 14 39 0
10 -14 -39 0
10 15 17 0
10 -15 -17 0
9 15 19 0
9 -15 -19 0
5 15 21 0
5 -15 -21 0
6 15 25 0
6 -15 -25 0
2 15 26 0
2 -15 -26 0
3 15 27 0
3 -15 -27 0
9 15 28 0
9 -15 -28 0
5 15 29 0
5 -15 -29 0
5 15 30 0
5 -15 -30 0
9 15 31 0
9 -15 -31 0
5 15 33 0
5 -15 -33 0
3 15 34 0
3 -15 -34 0
2 15 37 0
2 -15 -37 0
7 15 38 0
7 -15 -38 0
8 15 40 0
8 -15 -40 0
2 16 17 0
2 -16 -17 0
7 16 20 0
7 -16 -20 0
5 16 22 0
5 -16 -22 0
9 16 23 0
9 -16 -23 0
8 16 24 0
8 -16 -24 0
2 16 25 0
2 -16 -25 0
3 16 26 0
3 -16 -26 0
5 16 27 0
5 -16 -27 0
2 16 28 0
2 -16 -28 0
2 16 29 0
2 -16 -29 0
4 16 30 0
4 -16 -30 0
4 16 32 0
4 -16 -32 0
10 16 34 0
10 -16 -34 0
10 16 35 0
10 -16 -35 0
7 16 36 0
7 -16 -36 0
9 16 37 0
9 -16 -37 0
9 16 39 0
9 -16 -39 0
5 16 40 0
5 -16 -40 0
4 17 20 0
4 -17 -20 0
4 17 23 0
4 -17 -23 0
7 17 24 0
7 -17 -24 0
7 17 25 0
7 -17 -25 0
3 17 27 0
3 -17 -27 0
2 17 29 0
2 -17 -29 0
1 17 32 0
1 -17 -32 0
2 17 34 0
2 -17 -34 0
7 17 35 0
7 -17 -35 0
4 17 37 0
4 -17 -37 0
3 17 38 0
3 -17 -38 0
4 17 39 0
4 -17 -39 0
1 17 40 0
1 -17 -40 0
5 18 19 0
5 -18 -19 0
10 18 20 0
10 -18 -20 0
6 18 21 0
6 -18 -21 0
3 18 23 0
3 -18 -23 0
7 18 24 0
7 -18 -24 0
8 18 25 0
8 -18 -25 0
5 18 26 0
5 -18 -26 0
2 18 27 0
2 -18 -27 0
9 18 28 0
9 -18 -28 0
7 18 29 0
7 -18 -29 0
6 18 31 0
6 -18 -31 0
3 18 35 0
3 -18 -35 0
6 18 38 0
6 -18 -38 0
5 18 39 0
5 -18 -39 0
9 18 40 0
9 -18 -40 0
4 19 20 0
4 -19 -20 0
3 19 22 0
3 -19 -22 0
4 19 23 0
4 -19 -23 0
8 19 24 0
8 -19 -24 0
7 19 25 0
7 -19 -25 0
10 19 32 0
10 -19 -32 0
4 19 33 0
4 -19 -33 0
9 19 35 0
9 -19 -35 0
2 19 36 0
2 -19 -36 0
5 19 37 0
5 -19 -37 0
1 19 39 0
1 -19 -39 0
8 19 40 0
8 -19 -40 0
8 20 21 0
8 -20 -21 0
3 20 22 0
3 -20 -22 0
2 20 24 0
2 -20 -24 0
9 20 25 0
9 -20 -25 0
8 20 26 0
8 -20 -26 0
1 20 30 0
1 -20 -30 0
5 20 34 0
5 -20 -34 0
10 20 35 0
10 -20 -35 0
8 20 36 0
8 -20 -36 0
3 20 38 0
3 -20 -38 0
5 20 39 0
5 -20 -39 0
9 20 40 0
9 -20 -40 0
1 21 22 0
1 -21 -22 0
1 21 23 0
1 -21 -23 0
4 21 24 0
4 -21 -24 0
4 21 25 0
4 -21 -25 0
7 21 27 0
7 -21 -27 0
9 21 29 0
9 -21 -29 0
2 21 30 0
2 -21 -30 0
1 21 33 0
1 -21 -33 0
1 21 35 0
1 -21 -35 0
5 21 36 0
5 -21 -36 0
8 21 38 0
8 -21 -38 0
7 21 40 0
7 -21 -40 0
5 22 24 0
5 -22 -24 0
2 22 26 0
2 -22 -26 0
6 22 28 0
6 -22 -28 0
6 22 30 0
6 -22 -30 0
6 22 31 0
6 -22 -31 0
6 22 32 0
6 -22 -32 0
4 22 33 0
4 -22 -33 0
4 22 34 0
4 -22 -34 0
9 22 36 0
9 -22 -36 0
5 22 37 0
5 -22 -37 0
2 22 38 0
2 -22 -38 0
7 22 39 0
7 -22 -39 0
6 23 26 0
6 -23 -26 0
7 23 27 0
7 -23 -27 0
6 23 34 0
6 -23 -34 0
3 23 36 0
3 -23 -36 0
9 23 37 0
9 -23 -37 0
1 23 38 0
1 -23 -38 0
1 23 40 0
1 -23 -40 0
10 24 25 0
10 -24 -25 0
2 24 26 0
2 -24 -26 0
5 24 27 0
5 -24 -27 0
3 24 28 0
3 -24 -28 0
9 24 30 0
9 -24 -30 0
3 24 31 0
3 -24 -31 0
4 24 32 0
4 -24 -32 0
9 24 33 0
9 -24 -33 0
4 24 39 0
4 -24 -39 0
9 25 26 0
9 -25 -26 0
7 25 27 0
7 -25 -27 0
1 25 28 0
1 -25 -28 0
3 25 31 0
3 -25 -31 0
8 25 32 0
8 -25 -32 0
7 25 34 0
7 -25 -34 0
9 25 35 0
9 -25 -35 0
4 25 39 0
4 -25 -39 0
3 25 40 0
3 -25 -40 0
2 26 27 0
2 -26 -27 0
7 26 31 0
7 -26 -31 0
2 26 32 0
2 -26 -32 0
7 26 34 0
7 -26 -34 0
8 26 35 0
8 -26 -35 0
8 26 39 0
8 -26 -39 0
3 26 40 0
3 -26 -40 0
5 27 30 0
5 -27 -30 0
4 27 32 0
4 -27 -32 0
5 27 34 0
5 -27 -34 0
3 27 35 0
3 -27 -35 0
4 27 36 0
4 -27 -36 0
6 27 37 0
6 -27 -37 0
2 27 39 0
2 -27 -39 0
6 27 40 0
6 -27 -40 0
1 28 30 0
1 -28 -30 0
4 28 31 0
4 -28 -31 0
4 28 32 0
4 -28 -32 0
4 28 33 0
4 -28 -33 0
8 28 34 0
8 -28 -34 0
3 28 37 0
3 -28 -37 0
7 28 38 0
7 -28 -38 0
6 28 40 0
6 -28 -40 0
10 29 30 0
10 -29 -30 0
7 29 31 0
7 -29 -31 0
9 29 32 0
9 -29 -32 0
7 29 33 0
7 -29 -33 0
4 29 34 0
4 -29 -34 0
7 29 35 0
7 -29 -35 0
1 29 37 0
1 -29 -37 0
6 29 38 0
6 -29 -38 0
9 29 39 0
9 -29 -39 0
7 30 32 0
7 -30 -32 0
7 30 33 0
7 -30 -33 0
6 30 35 0
6 -30 -35 0
5 30 36 0
5 -30 -36 0
4 30 37 0
4 -30 -37 0
8 30 38 0
8 -30 -38 0
9 30 39 0
9 -30 -39 0
7 31 32 0
7 -31 -32 0
2 31 33 0
2 -31 -33 0
1 31 34 0
1 -31 -34 0
1 31 35 0
1 -31 -35 0
7 31 37 0
7 -31 -37 0
2 31 38 0
2 -31 -38 0
7 31 39 0
7 -31 -39 0
8 31 40 0
8 -31 -40 0
6 32 33 0
6 -32 -33 0
1 32 34 0
1 -32 -34 0
1 32 36 0
1 -32 -36 0
4 32 37 0
4 -32 -37 0
3 32 40 0
3 -32 -40 0
7 33 34 0
7 -33 -34 0
9 33 35 0
9 -33 -35 0
2 33 37 0
2 -33 -37 0
4 33 38 0
4 -33 -38 0
7 33 40 0
7 -33 -40 0
9 34 35 0
9 -34 -35 0
7 34 36 0
7 -34 -36 0
4 34 37 0
4 -34 -37 0
9 34 39 0
9 -34 -39 0
2 35 36 0
2 -35 -36 0
2 35 37 0
2 -35 -37 0
6 35 38 0
6 -35 -38 0
9 35 40 0
9 -35 -40 0
7 36 37 0
7 -36 -37 0
10 36 38 0
10 -36 -38 0
2 36 40 0
2 -36 -40 0
4 37 39 0
4 -37 -39 0
8 38 39 0
8 -38 -39 0
9 38 40 0
9 -38 -40 0
